
Gurobi 11.0.0 (win64) logging started Sat Jun 15 09:44:55 2024

Set parameter LogFile to value "./GurobiLog/stage_2_iter_4.log"
Gurobi Optimizer version 11.0.0 build v11.0.0rc2 (win64 - Windows 10.0 (18363.2))

CPU model: Intel(R) Core(TM) i7-8700 CPU @ 3.20GHz, instruction set [SSE2|AVX|AVX2]
Thread count: 6 physical cores, 12 logical processors, using up to 1 threads

Optimize a model with 1485 rows, 20454 columns and 39159 nonzeros
Coefficient statistics:
  Matrix range     [2e-02, 7e+03]
  Objective range  [1e-01, 2e+05]
  Bounds range     [2e+00, 7e+05]
  RHS range        [1e+00, 3e+04]
LP warm-start: use basis
Iteration    Objective       Primal Inf.    Dual Inf.      Time
       0    2.0464422e+04   8.465333e+03   0.000000e+00      0s
     156    3.2930633e+04   0.000000e+00   0.000000e+00      0s

Solved in 156 iterations and 0.01 seconds (0.00 work units)
Optimal objective  3.293063333e+04

Gurobi 11.0.0 (win64) logging started Sat Jun 15 10:43:32 2024

Set parameter LogFile to value "./GurobiLog/stage_2_iter_4.log"
Gurobi Optimizer version 11.0.0 build v11.0.0rc2 (win64 - Windows 10.0 (18363.2))

CPU model: Intel(R) Core(TM) i7-8700 CPU @ 3.20GHz, instruction set [SSE2|AVX|AVX2]
Thread count: 6 physical cores, 12 logical processors, using up to 1 threads

Optimize a model with 1485 rows, 20454 columns and 43131 nonzeros
Coefficient statistics:
  Matrix range     [6e-02, 1e+04]
  Objective range  [1e-01, 2e+05]
  Bounds range     [2e+00, 6e+05]
  RHS range        [1e+00, 5e+04]
LP warm-start: use basis
Iteration    Objective       Primal Inf.    Dual Inf.      Time
       0    1.2680648e+04   5.146018e+04   0.000000e+00      0s
     147    2.5600462e+04   0.000000e+00   0.000000e+00      0s

Solved in 147 iterations and 0.01 seconds (0.01 work units)
Optimal objective  2.560046248e+04

Gurobi 11.0.0 (win64) logging started Sat Jun 15 11:02:06 2024

Set parameter LogFile to value "./GurobiLog/stage_2_iter_4.log"
Gurobi Optimizer version 11.0.0 build v11.0.0rc2 (win64 - Windows 10.0 (18363.2))

CPU model: Intel(R) Core(TM) i7-8700 CPU @ 3.20GHz, instruction set [SSE2|AVX|AVX2]
Thread count: 6 physical cores, 12 logical processors, using up to 1 threads

Optimize a model with 1485 rows, 20454 columns and 37610 nonzeros
Coefficient statistics:
  Matrix range     [3e-02, 7e+03]
  Objective range  [1e-01, 2e+05]
  Bounds range     [1e+00, 8e+05]
  RHS range        [1e+00, 3e+04]
LP warm-start: use basis
Iteration    Objective       Primal Inf.    Dual Inf.      Time
       0    2.3726923e+04   5.237034e+03   0.000000e+00      0s
     101    3.2395534e+04   0.000000e+00   0.000000e+00      0s

Solved in 101 iterations and 0.01 seconds (0.00 work units)
Optimal objective  3.239553379e+04

Gurobi 11.0.0 (win64) logging started Sat Jun 15 13:57:39 2024

Set parameter LogFile to value "./GurobiLog/stage_2_iter_4.log"
Gurobi Optimizer version 11.0.0 build v11.0.0rc2 (win64 - Windows 10.0 (18363.2))

CPU model: Intel(R) Core(TM) i7-8700 CPU @ 3.20GHz, instruction set [SSE2|AVX|AVX2]
Thread count: 6 physical cores, 12 logical processors, using up to 1 threads

Optimize a model with 875 rows, 12370 columns and 31490 nonzeros
Coefficient statistics:
  Matrix range     [3e-01, 5e+01]
  Objective range  [3e-01, 2e+05]
  Bounds range     [1e+00, 3e+04]
  RHS range        [1e+00, 3e+04]
LP warm-start: use basis
Iteration    Objective       Primal Inf.    Dual Inf.      Time
       0    2.1582548e+05   5.455281e+03   0.000000e+00      0s
     407    4.8754944e+05   0.000000e+00   0.000000e+00      0s

Solved in 407 iterations and 0.02 seconds (0.02 work units)
Optimal objective  4.875494354e+05
Gurobi Optimizer version 11.0.0 build v11.0.0rc2 (win64 - Windows 10.0 (18363.2))

CPU model: Intel(R) Core(TM) i7-8700 CPU @ 3.20GHz, instruction set [SSE2|AVX|AVX2]
Thread count: 6 physical cores, 12 logical processors, using up to 1 threads

Optimize a model with 875 rows, 12370 columns and 31490 nonzeros
Coefficient statistics:
  Matrix range     [3e-01, 5e+01]
  Objective range  [3e-01, 2e+05]
  Bounds range     [1e+00, 3e+04]
  RHS range        [1e+00, 3e+04]
LP warm-start: use basis
Iteration    Objective       Primal Inf.    Dual Inf.      Time
       0    4.8774482e+05   1.433330e+02   0.000000e+00      0s
      35    4.8776979e+05   0.000000e+00   0.000000e+00      0s

Solved in 35 iterations and 0.01 seconds (0.00 work units)
Optimal objective  4.877697930e+05
Gurobi Optimizer version 11.0.0 build v11.0.0rc2 (win64 - Windows 10.0 (18363.2))

CPU model: Intel(R) Core(TM) i7-8700 CPU @ 3.20GHz, instruction set [SSE2|AVX|AVX2]
Thread count: 6 physical cores, 12 logical processors, using up to 1 threads

Optimize a model with 875 rows, 12370 columns and 31490 nonzeros
Coefficient statistics:
  Matrix range     [3e-01, 5e+01]
  Objective range  [3e-01, 2e+05]
  Bounds range     [6e-01, 3e+04]
  RHS range        [1e+00, 3e+04]
LP warm-start: use basis
Iteration    Objective       Primal Inf.    Dual Inf.      Time
       0    4.8445679e+05   6.172308e+02   0.000000e+00      0s
     123    4.8533388e+05   0.000000e+00   0.000000e+00      0s

Solved in 123 iterations and 0.01 seconds (0.01 work units)
Optimal objective  4.853338756e+05
Gurobi Optimizer version 11.0.0 build v11.0.0rc2 (win64 - Windows 10.0 (18363.2))

CPU model: Intel(R) Core(TM) i7-8700 CPU @ 3.20GHz, instruction set [SSE2|AVX|AVX2]
Thread count: 6 physical cores, 12 logical processors, using up to 1 threads

Optimize a model with 875 rows, 12370 columns and 31490 nonzeros
Coefficient statistics:
  Matrix range     [3e-01, 5e+01]
  Objective range  [3e-01, 2e+05]
  Bounds range     [1e+00, 3e+04]
  RHS range        [1e+00, 3e+04]
LP warm-start: use basis
Iteration    Objective       Primal Inf.    Dual Inf.      Time
       0    4.9413779e+05   1.401736e+03   0.000000e+00      0s
     157    4.9598871e+05   0.000000e+00   0.000000e+00      0s

Solved in 157 iterations and 0.01 seconds (0.01 work units)
Optimal objective  4.959887069e+05
Gurobi Optimizer version 11.0.0 build v11.0.0rc2 (win64 - Windows 10.0 (18363.2))

CPU model: Intel(R) Core(TM) i7-8700 CPU @ 3.20GHz, instruction set [SSE2|AVX|AVX2]
Thread count: 6 physical cores, 12 logical processors, using up to 1 threads

Optimize a model with 875 rows, 12370 columns and 31490 nonzeros
Coefficient statistics:
  Matrix range     [3e-01, 5e+01]
  Objective range  [3e-01, 2e+05]
  Bounds range     [1e+00, 3e+04]
  RHS range        [1e+00, 3e+04]
LP warm-start: use basis
Iteration    Objective       Primal Inf.    Dual Inf.      Time
       0    4.7332914e+05   1.441269e+03   0.000000e+00      0s
     170    4.9390927e+05   0.000000e+00   0.000000e+00      0s

Solved in 170 iterations and 0.01 seconds (0.01 work units)
Optimal objective  4.939092697e+05
Gurobi Optimizer version 11.0.0 build v11.0.0rc2 (win64 - Windows 10.0 (18363.2))

CPU model: Intel(R) Core(TM) i7-8700 CPU @ 3.20GHz, instruction set [SSE2|AVX|AVX2]
Thread count: 6 physical cores, 12 logical processors, using up to 1 threads

Optimize a model with 875 rows, 12370 columns and 31490 nonzeros
Coefficient statistics:
  Matrix range     [3e-01, 5e+01]
  Objective range  [3e-01, 2e+05]
  Bounds range     [1e+00, 3e+04]
  RHS range        [1e+00, 3e+04]
LP warm-start: use basis
Iteration    Objective       Primal Inf.    Dual Inf.      Time
       0    4.8473816e+05   1.915524e+03   0.000000e+00      0s
     137    4.9633175e+05   0.000000e+00   0.000000e+00      0s

Solved in 137 iterations and 0.01 seconds (0.01 work units)
Optimal objective  4.963317521e+05
Gurobi Optimizer version 11.0.0 build v11.0.0rc2 (win64 - Windows 10.0 (18363.2))

CPU model: Intel(R) Core(TM) i7-8700 CPU @ 3.20GHz, instruction set [SSE2|AVX|AVX2]
Thread count: 6 physical cores, 12 logical processors, using up to 1 threads

Optimize a model with 875 rows, 12370 columns and 31490 nonzeros
Coefficient statistics:
  Matrix range     [3e-01, 5e+01]
  Objective range  [3e-01, 2e+05]
  Bounds range     [6e-01, 3e+04]
  RHS range        [1e+00, 3e+04]
LP warm-start: use basis
Iteration    Objective       Primal Inf.    Dual Inf.      Time
       0    4.9163496e+05   9.607907e+02   0.000000e+00      0s
     109    4.9229411e+05   0.000000e+00   0.000000e+00      0s

Solved in 109 iterations and 0.01 seconds (0.01 work units)
Optimal objective  4.922941102e+05
Gurobi Optimizer version 11.0.0 build v11.0.0rc2 (win64 - Windows 10.0 (18363.2))

CPU model: Intel(R) Core(TM) i7-8700 CPU @ 3.20GHz, instruction set [SSE2|AVX|AVX2]
Thread count: 6 physical cores, 12 logical processors, using up to 1 threads

Optimize a model with 875 rows, 12370 columns and 31490 nonzeros
Coefficient statistics:
  Matrix range     [3e-01, 5e+01]
  Objective range  [3e-01, 2e+05]
  Bounds range     [1e+00, 3e+04]
  RHS range        [1e+00, 3e+04]
LP warm-start: use basis
Iteration    Objective       Primal Inf.    Dual Inf.      Time
       0    4.8619994e+05   1.413931e+03   0.000000e+00      0s
     146    4.8891144e+05   0.000000e+00   0.000000e+00      0s

Solved in 146 iterations and 0.01 seconds (0.01 work units)
Optimal objective  4.889114400e+05
Gurobi Optimizer version 11.0.0 build v11.0.0rc2 (win64 - Windows 10.0 (18363.2))

CPU model: Intel(R) Core(TM) i7-8700 CPU @ 3.20GHz, instruction set [SSE2|AVX|AVX2]
Thread count: 6 physical cores, 12 logical processors, using up to 1 threads

Optimize a model with 875 rows, 12370 columns and 31490 nonzeros
Coefficient statistics:
  Matrix range     [3e-01, 5e+01]
  Objective range  [3e-01, 2e+05]
  Bounds range     [1e+00, 3e+04]
  RHS range        [1e+00, 3e+04]
LP warm-start: use basis
Iteration    Objective       Primal Inf.    Dual Inf.      Time
       0    5.0012080e+05   9.642260e+02   0.000000e+00      0s
     189    5.3001992e+05   0.000000e+00   0.000000e+00      0s

Solved in 189 iterations and 0.01 seconds (0.01 work units)
Optimal objective  5.300199190e+05
Gurobi Optimizer version 11.0.0 build v11.0.0rc2 (win64 - Windows 10.0 (18363.2))

CPU model: Intel(R) Core(TM) i7-8700 CPU @ 3.20GHz, instruction set [SSE2|AVX|AVX2]
Thread count: 6 physical cores, 12 logical processors, using up to 1 threads

Optimize a model with 875 rows, 12370 columns and 31490 nonzeros
Coefficient statistics:
  Matrix range     [3e-01, 5e+01]
  Objective range  [3e-01, 2e+05]
  Bounds range     [1e+00, 3e+04]
  RHS range        [1e+00, 3e+04]
LP warm-start: use basis
Iteration    Objective       Primal Inf.    Dual Inf.      Time
       0    6.3892954e+05   2.116644e+03   0.000000e+00      0s
     160    6.4098449e+05   0.000000e+00   0.000000e+00      0s

Solved in 160 iterations and 0.01 seconds (0.01 work units)
Optimal objective  6.409844910e+05

Gurobi 11.0.0 (win64) logging started Tue Jul  2 10:35:13 2024

Set parameter LogFile to value "./GurobiLog/stage_2_iter_4.log"
Gurobi Optimizer version 11.0.0 build v11.0.0rc2 (win64 - Windows 10.0 (18363.2))

CPU model: Intel(R) Core(TM) i7-8700 CPU @ 3.20GHz, instruction set [SSE2|AVX|AVX2]
Thread count: 6 physical cores, 12 logical processors, using up to 1 threads

Optimize a model with 835 rows, 12350 columns and 28090 nonzeros
Coefficient statistics:
  Matrix range     [1e+00, 6e+01]
  Objective range  [1e+00, 2e+05]
  Bounds range     [4e-01, 1e+03]
  RHS range        [1e+00, 2e+04]
LP warm-start: use basis
Iteration    Objective       Primal Inf.    Dual Inf.      Time
       0    1.0267210e+06   1.005196e+04   0.000000e+00      0s
     322    1.2159048e+06   0.000000e+00   0.000000e+00      0s

Solved in 322 iterations and 0.01 seconds (0.01 work units)
Optimal objective  1.215904759e+06
